*Heading
** Job name: UNtension Model name: Model-1
** Generated by: Abaqus/CAE 2022
*Preprint, echo=NO, model=NO, history=NO, contact=NO
** ----------------------------------------------------------------
** 
** PART INSTANCE: Part-1-1
** 
*Node
      1,          10.,           2.,           1.
      2,          10.,           1.,           1.
      3,          10.,           0.,           1.
      4,          10.,           2.,          0.5
      5,          10.,           1.,          0.5
      6,          10.,           0.,          0.5
      7,          10.,           2.,           0.
      8,          10.,           1.,           0.
      9,          10.,           0.,           0.
     10,           9.,           2.,           1.
     11,           9.,           1.,           1.
     12,           9.,           0.,           1.
     13,           9.,           2.,          0.5
     14,           9.,           1.,          0.5
     15,           9.,           0.,          0.5
     16,           9.,           2.,           0.
     17,           9.,           1.,           0.
     18,           9.,           0.,           0.
     19,           8.,           2.,           1.
     20,           8.,           1.,           1.
     21,           8.,           0.,           1.
     22,           8.,           2.,          0.5
     23,           8.,           1.,          0.5
     24,           8.,           0.,          0.5
     25,           8.,           2.,           0.
     26,           8.,           1.,           0.
     27,           8.,           0.,           0.
     28,           7.,           2.,           1.
     29,           7.,           1.,           1.
     30,           7.,           0.,           1.
     31,           7.,           2.,          0.5
     32,           7.,           1.,          0.5
     33,           7.,           0.,          0.5
     34,           7.,           2.,           0.
     35,           7.,           1.,           0.
     36,           7.,           0.,           0.
     37,           6.,           2.,           1.
     38,           6.,           1.,           1.
     39,           6.,           0.,           1.
     40,           6.,           2.,          0.5
     41,           6.,           1.,          0.5
     42,           6.,           0.,          0.5
     43,           6.,           2.,           0.
     44,           6.,           1.,           0.
     45,           6.,           0.,           0.
     46,           5.,           2.,           1.
     47,           5.,           1.,           1.
     48,           5.,           0.,           1.
     49,           5.,           2.,          0.5
     50,           5.,           1.,          0.5
     51,           5.,           0.,          0.5
     52,           5.,           2.,           0.
     53,           5.,           1.,           0.
     54,           5.,           0.,           0.
     55,           4.,           2.,           1.
     56,           4.,           1.,           1.
     57,           4.,           0.,           1.
     58,           4.,           2.,          0.5
     59,           4.,           1.,          0.5
     60,           4.,           0.,          0.5
     61,           4.,           2.,           0.
     62,           4.,           1.,           0.
     63,           4.,           0.,           0.
     64,           3.,           2.,           1.
     65,           3.,           1.,           1.
     66,           3.,           0.,           1.
     67,           3.,           2.,          0.5
     68,           3.,           1.,          0.5
     69,           3.,           0.,          0.5
     70,           3.,           2.,           0.
     71,           3.,           1.,           0.
     72,           3.,           0.,           0.
     73,           2.,           2.,           1.
     74,           2.,           1.,           1.
     75,           2.,           0.,           1.
     76,           2.,           2.,          0.5
     77,           2.,           1.,          0.5
     78,           2.,           0.,          0.5
     79,           2.,           2.,           0.
     80,           2.,           1.,           0.
     81,           2.,           0.,           0.
     82,           1.,           2.,           1.
     83,           1.,           1.,           1.
     84,           1.,           0.,           1.
     85,           1.,           2.,          0.5
     86,           1.,           1.,          0.5
     87,           1.,           0.,          0.5
     88,           1.,           2.,           0.
     89,           1.,           1.,           0.
     90,           1.,           0.,           0.
     91,           0.,           2.,           1.
     92,           0.,           1.,           1.
     93,           0.,           0.,           1.
     94,           0.,           2.,          0.5
     95,           0.,           1.,          0.5
     96,           0.,           0.,          0.5
     97,           0.,           2.,           0.
     98,           0.,           1.,           0.
     99,           0.,           0.,           0.
*Element, type=C3D8
 1, 10, 11, 14, 13,  1,  2,  5,  4
 2, 11, 12, 15, 14,  2,  3,  6,  5
 3, 13, 14, 17, 16,  4,  5,  8,  7
 4, 14, 15, 18, 17,  5,  6,  9,  8
 5, 19, 20, 23, 22, 10, 11, 14, 13
 6, 20, 21, 24, 23, 11, 12, 15, 14
 7, 22, 23, 26, 25, 13, 14, 17, 16
 8, 23, 24, 27, 26, 14, 15, 18, 17
 9, 28, 29, 32, 31, 19, 20, 23, 22
10, 29, 30, 33, 32, 20, 21, 24, 23
11, 31, 32, 35, 34, 22, 23, 26, 25
12, 32, 33, 36, 35, 23, 24, 27, 26
13, 37, 38, 41, 40, 28, 29, 32, 31
14, 38, 39, 42, 41, 29, 30, 33, 32
15, 40, 41, 44, 43, 31, 32, 35, 34
16, 41, 42, 45, 44, 32, 33, 36, 35
17, 46, 47, 50, 49, 37, 38, 41, 40
18, 47, 48, 51, 50, 38, 39, 42, 41
19, 49, 50, 53, 52, 40, 41, 44, 43
20, 50, 51, 54, 53, 41, 42, 45, 44
21, 55, 56, 59, 58, 46, 47, 50, 49
22, 56, 57, 60, 59, 47, 48, 51, 50
23, 58, 59, 62, 61, 49, 50, 53, 52
24, 59, 60, 63, 62, 50, 51, 54, 53
25, 64, 65, 68, 67, 55, 56, 59, 58
26, 65, 66, 69, 68, 56, 57, 60, 59
27, 67, 68, 71, 70, 58, 59, 62, 61
28, 68, 69, 72, 71, 59, 60, 63, 62
29, 73, 74, 77, 76, 64, 65, 68, 67
30, 74, 75, 78, 77, 65, 66, 69, 68
31, 76, 77, 80, 79, 67, 68, 71, 70
32, 77, 78, 81, 80, 68, 69, 72, 71
33, 82, 83, 86, 85, 73, 74, 77, 76
34, 83, 84, 87, 86, 74, 75, 78, 77
35, 85, 86, 89, 88, 76, 77, 80, 79
36, 86, 87, 90, 89, 77, 78, 81, 80
37, 91, 92, 95, 94, 82, 83, 86, 85
38, 92, 93, 96, 95, 83, 84, 87, 86
39, 94, 95, 98, 97, 85, 86, 89, 88
40, 95, 96, 99, 98, 86, 87, 90, 89
*Nset, nset=Part-1-1_allbody, generate
  1,  99,   1
*Elset, elset=Part-1-1_allbody, generate
  1,  40,   1
** Section: Section-1
*Solid Section, elset=Part-1-1_allbody, material=Material-1
,
*System
*Nset, nset=rightend, generate
 1,  9,  1
*Elset, elset=rightend, generate
 1,  4,  1
*Nset, nset=xsymm, generate
 91,  99,   1
*Elset, elset=xsymm, generate
 37,  40,   1
*Nset, nset=ysymm, generate
  3,  99,   3
*Elset, elset=ysymm, generate
  2,  40,   2
*Nset, nset=zsymm
  1,  2,  3, 10, 11, 12, 19, 20, 21, 28, 29, 30, 37, 38, 39, 46
 47, 48, 55, 56, 57, 64, 65, 66, 73, 74, 75, 82, 83, 84, 91, 92
 93,
*Elset, elset=zsymm
  1,  2,  5,  6,  9, 10, 13, 14, 17, 18, 21, 22, 25, 26, 29, 30
 33, 34, 37, 38
** 
** MATERIALS
** 
*Material, name=Material-1
*User Material, constants=8
2.50d0,8.95d-7,1.40d0,1.30d0,0.105d0,1.40d0,1.30d0,0.105d0
*depvar
4
** ----------------------------------------------------------------
** 
** ------------------------------------------------------------
** STEP 1: Loading
** ------------------------------------------------------------
*Step, name=loading, nlgeom=YES, inc=1000
*Static, direct
0.01, 1.

** BOUNDARY CONDITIONS
** Right-end displacement: U1 = 10
*Boundary
rightend, 1, 1, 10.

** Symmetry boundary conditions
*Boundary
xsymm, XSYMM
*Boundary
ysymm, YSYMM
*Boundary
zsymm, ZSYMM

** OUTPUT REQUESTS
*Restart, write, frequency=0

** FIELD OUTPUT
*Output, field, variable=PRESELECT
*Element Output, directions=YES
SDV

** HISTORY OUTPUT
*Output, history, variable=PRESELECT

*End Step

** ------------------------------------------------------------
** STEP 2: Unloading
** ------------------------------------------------------------
*Step, name=unloading, nlgeom=YES, inc=1000
*Static, direct
0.01, 1.

** BOUNDARY CONDITIONS
** Unload the right end back to U1 = 0
*Boundary
rightend, 1, 1, 0.

** OUTPUT REQUESTS
*Restart, write, frequency=0

** FIELD OUTPUT
*Output, field, variable=PRESELECT
*Element Output, directions=YES
SDV

** HISTORY OUTPUT
*Output, history, variable=PRESELECT

*End Step

